c description: Random 2-CNF over 15 variables and 30 clauses
c generator: CNFgen (0.9.0)
c copyright: (C) 2012-2020 Massimo Lauria <massimo.lauria@uniroma1.it>
c url: https://massimolauria.net/cnfgen
c
p cnf 15 30
-4 11 0
-11 14 0
-4 -10 0
7 -15 0
4 -6 0
1 -11 0
2 12 0
2 3 0
-3 14 0
-2 10 0
5 -11 0
-1 2 0
12 -14 0
6 -7 0
-2 14 0
-3 8 0
5 -8 0
-3 15 0
6 -15 0
-4 -14 0
2 -12 0
-3 -13 0
-5 -10 0
-1 -4 0
2 -5 0
-3 -9 0
-9 -12 0
5 6 0
13 15 0
-3 11 0